networks/zoo_106_1655/zoo_106_1655.txt
Number of groups: 59
Flow 25: {2 48} {48 26} {26 44} {44 97} 
Flow 28: {1 4} {4 3} {3 52} {52 105} 
Flow 33: {5 58} 
Flow 52: {41 25} {25 78} 
Flow 194: {6 20} {20 73} 
Flow 261: {8 7} {7 27} {27 80} 
Flow 288: {11 7} {7 8} {8 5} {5 6} {6 59} 
Flow 296: {12 10} {10 38} 
Flow 318: {46 48} {48 4} {4 34} {34 87} 
Flow 328: {13 6} {6 46} {46 99} 
Flow 348: {14 4} {4 32} {32 85} 
Flow 365: {15 7} 
Flow 369: {53 52} {52 3} {3 56} 
Flow 400: {16 53} {53 44} {44 51} {51 104} 
Flow 409: {17 36} {36 10} {10 9} {9 62} 
Flow 449: {18 50} {50 103} 
Flow 462: {19 41} {41 50} {50 36} {36 89} 
Flow 468: {50 51} {51 44} {44 45} {45 98} 
Flow 478: {20 6} {6 5} {5 8} {8 61} 
Flow 481: {7 11} {11 64} 
Flow 503: {21 6} {6 9} {9 10} {10 63} 
Flow 516: {22 4} {4 23} {23 76} 
Flow 533: {23 4} {4 1} {1 2} {2 55} 
Flow 563: {24 52} {52 53} {53 106} 
Flow 583: {25 41} {41 40} {40 93} 
Flow 654: {27 7} {7 48} {48 49} {49 36} {36 42} 
Flow 676: {28 10} {10 36} {36 17} {17 70} 
Flow 723: {29 10} {10 39} {39 92} 
Flow 752: {30 50} {50 52} {52 24} {24 77} 
Flow 803: {31 48} {48 47} {47 100} 
Flow 810: {32 4} {4 57} 
Flow 855: {33 36} {36 43} 
Flow 877: {34 4} {4 48} {48 31} {31 84} 
Flow 904: {35 48} {48 46} {46 6} {6 21} {21 74} 
Flow 1002: {38 39} 
Flow 1011: {37 36} {36 49} {49 48} {48 101} 
Flow 1012: {49 102} 
Flow 1017: {48 2} {2 1} {1 54} 
Flow 1030: {7 15} {15 68} 
Flow 1042: {38 10} {10 28} {28 81} 
Flow 1055: {37 43} 
Flow 1086: {39 10} {10 29} {29 82} 
Flow 1092: {39 38} {38 37} {37 90} 
Flow 1184: {40 42} {42 43} {43 96} 
Flow 1217: {42 36} {36 37} 
Flow 1221: {42 40} {40 41} {41 94} 
Flow 1247: {43 36} {36 50} {50 41} {41 19} {19 72} 
Flow 1263: {43 37} {37 38} {38 91} 
Flow 1267: {43 42} {42 95} 
Flow 1290: {44 26} {26 3} {3 4} {4 14} {14 67} 
Flow 1294: {51 50} {50 18} {18 71} 
Flow 1340: {45 44} {44 53} {53 16} {16 69} 
Flow 1344: {4 22} {22 75} 
Flow 1348: {52 50} {50 30} {30 83} 
Flow 1352: {45 3} {3 26} {26 48} {48 35} {35 88} 
Flow 1407: {3 45} 
Flow 1419: {47 48} {48 7} {7 60} 
Flow 1463: {10 12} {12 65} 
Flow 1548: {9 6} {6 13} {13 66} 
Time taken running everything: 160 seconds
