networks/zoo_106_1655/zoo_106_1655.sol
<?xml version = "1.0" encoding="UTF-8" standalone="yes"?>
<CPLEXSolution version="1.2">
 <header
   problemName="networks/zoo_106_1655/zoo_106_1655.lp"
   solutionName="incumbent"
   solutionIndex="-1"
   objectiveValue="59"
   solutionTypeValue="3"
   solutionTypeString="primal"
   solutionStatusValue="101"
   solutionStatusString="integer optimal solution"
   solutionMethodString="mip"
   primalFeasible="1"
   dualFeasible="1"
   MIPNodes="0"
   MIPIterations="0"
   writeLevel="3"/>
 <quality
   epInt="1.0000000000000001e-05"
   epRHS="9.9999999999999995e-07"
   maxIntInfeas="0"
   maxPrimalInfeas="2.000000165480742e-09"
   maxX="4"
   maxSlack="10"/>
 <variables>
  <variable name="Y(25,44)" index="2539" value="1"/>
  <variable name="Y(28,52)" index="2859" value="1"/>
  <variable name="Y(33,5)" index="3332" value="1"/>
  <variable name="Y(52,25)" index="5328" value="1"/>
  <variable name="Y(194,20)" index="20091" value="1"/>
  <variable name="Y(261,27)" index="27066" value="1"/>
  <variable name="Y(288,6)" index="29853" value="1"/>
  <variable name="Y(296,10)" index="30689" value="1"/>
  <variable name="Y(318,34)" index="33001" value="1"/>
  <variable name="Y(328,46)" index="34053" value="1"/>
  <variable name="Y(348,32)" index="36119" value="1"/>
  <variable name="Y(365,15)" index="37870" value="1"/>
  <variable name="Y(369,3)" index="38274" value="1"/>
  <variable name="Y(400,51)" index="41546" value="1"/>
  <variable name="Y(409,9)" index="42440" value="1"/>
  <variable name="Y(449,50)" index="46641" value="1"/>
  <variable name="Y(462,36)" index="47979" value="1"/>
  <variable name="Y(468,45)" index="48612" value="1"/>
  <variable name="Y(478,8)" index="49615" value="1"/>
  <variable name="Y(481,11)" index="49930" value="1"/>
  <variable name="Y(503,10)" index="52217" value="1"/>
  <variable name="Y(516,23)" index="53582" value="1"/>
  <variable name="Y(533,2)" index="55329" value="1"/>
  <variable name="Y(563,53)" index="58500" value="1"/>
  <variable name="Y(583,40)" index="60567" value="1"/>
  <variable name="Y(654,36)" index="67947" value="1"/>
  <variable name="Y(676,17)" index="70216" value="1"/>
  <variable name="Y(723,39)" index="75126" value="1"/>
  <variable name="Y(752,24)" index="78127" value="1"/>
  <variable name="Y(803,47)" index="83454" value="1"/>
  <variable name="Y(810,4)" index="84139" value="1"/>
  <variable name="Y(855,36)" index="88851" value="1"/>
  <variable name="Y(877,31)" index="91134" value="1"/>
  <variable name="Y(904,21)" index="93932" value="1"/>
  <variable name="Y(1002,38)" index="104141" value="1"/>
  <variable name="Y(1011,48)" index="105087" value="1"/>
  <variable name="Y(1012,49)" index="105192" value="1"/>
  <variable name="Y(1017,1)" index="105664" value="1"/>
  <variable name="Y(1030,15)" index="107030" value="1"/>
  <variable name="Y(1042,28)" index="108291" value="1"/>
  <variable name="Y(1055,37)" index="109652" value="1"/>
  <variable name="Y(1086,29)" index="112868" value="1"/>
  <variable name="Y(1092,37)" index="113500" value="1"/>
  <variable name="Y(1184,43)" index="123074" value="1"/>
  <variable name="Y(1217,36)" index="126499" value="1"/>
  <variable name="Y(1221,41)" index="126920" value="1"/>
  <variable name="Y(1247,19)" index="129602" value="1"/>
  <variable name="Y(1263,38)" index="131285" value="1"/>
  <variable name="Y(1267,42)" index="131705" value="1"/>
  <variable name="Y(1290,14)" index="134069" value="1"/>
  <variable name="Y(1294,18)" index="134489" value="1"/>
  <variable name="Y(1340,16)" index="139271" value="1"/>
  <variable name="Y(1344,22)" index="139693" value="1"/>
  <variable name="Y(1348,30)" index="140117" value="1"/>
  <variable name="Y(1352,35)" index="140538" value="1"/>
  <variable name="Y(1407,3)" index="146226" value="1"/>
  <variable name="Y(1419,7)" index="147478" value="1"/>
  <variable name="Y(1463,12)" index="152059" value="1"/>
  <variable name="Y(1548,13)" index="160900" value="1"/>
  <variable name="X(1,2,533)" index="172652" value="1"/>
  <variable name="X(1,4,28)" index="173802" value="1"/>
  <variable name="X(1,54,1017)" index="176446" value="1"/>
  <variable name="X(2,1,1017)" index="178101" value="1"/>
  <variable name="X(2,48,25)" index="178764" value="1"/>
  <variable name="X(2,55,533)" index="180927" value="1"/>
  <variable name="X(3,4,1290)" index="183339" value="1"/>
  <variable name="X(3,26,1352)" index="185056" value="1"/>
  <variable name="X(3,45,1407)" index="186766" value="1"/>
  <variable name="X(3,52,28)" index="187042" value="1"/>
  <variable name="X(3,56,369)" index="189038" value="1"/>
  <variable name="X(4,1,533)" index="190857" value="1"/>
  <variable name="X(4,3,28)" index="192007" value="1"/>
  <variable name="X(4,14,1290)" index="194924" value="1"/>
  <variable name="X(4,22,1344)" index="196633" value="1"/>
  <variable name="X(4,23,516)" index="197460" value="1"/>
  <variable name="X(4,32,348)" index="198947" value="1"/>
  <variable name="X(4,34,318)" index="200572" value="1"/>
  <variable name="X(4,48,877)" index="202786" value="1"/>
  <variable name="X(4,57,810)" index="204374" value="1"/>
  <variable name="X(5,6,288)" index="205507" value="1"/>
  <variable name="X(5,8,478)" index="207352" value="1"/>
  <variable name="X(5,58,33)" index="208562" value="1"/>
  <variable name="X(6,5,478)" index="210662" value="1"/>
  <variable name="X(6,9,503)" index="212342" value="1"/>
  <variable name="X(6,13,1548)" index="215042" value="1"/>
  <variable name="X(6,20,194)" index="215343" value="1"/>
  <variable name="X(6,21,904)" index="217708" value="1"/>
  <variable name="X(6,46,328)" index="218787" value="1"/>
  <variable name="X(6,59,288)" index="220402" value="1"/>
  <variable name="X(7,8,288)" index="222057" value="1"/>
  <variable name="X(7,11,481)" index="223905" value="1"/>
  <variable name="X(7,15,1030)" index="226109" value="1"/>
  <variable name="X(7,27,261)" index="226995" value="1"/>
  <variable name="X(7,48,654)" index="229043" value="1"/>
  <variable name="X(7,60,1419)" index="231463" value="1"/>
  <variable name="X(8,5,288)" index="231987" value="1"/>
  <variable name="X(8,7,261)" index="233615" value="1"/>
  <variable name="X(8,61,478)" index="235487" value="1"/>
  <variable name="X(9,6,1548)" index="238212" value="1"/>
  <variable name="X(9,10,503)" index="238822" value="1"/>
  <variable name="X(9,62,409)" index="240383" value="1"/>
  <variable name="X(10,9,409)" index="242038" value="1"/>
  <variable name="X(10,12,1463)" index="244747" value="1"/>
  <variable name="X(10,28,1042)" index="245981" value="1"/>
  <variable name="X(10,29,1086)" index="247680" value="1"/>
  <variable name="X(10,36,676)" index="248925" value="1"/>
  <variable name="X(10,38,296)" index="250200" value="1"/>
  <variable name="X(10,39,723)" index="252282" value="1"/>
  <variable name="X(10,63,503)" index="253717" value="1"/>
  <variable name="X(11,7,288)" index="255157" value="1"/>
  <variable name="X(11,64,481)" index="257005" value="1"/>
  <variable name="X(12,10,296)" index="258475" value="1"/>
  <variable name="X(12,65,1463)" index="261297" value="1"/>
  <variable name="X(13,6,328)" index="261817" value="1"/>
  <variable name="X(13,66,1548)" index="264692" value="1"/>
  <variable name="X(14,4,348)" index="265147" value="1"/>
  <variable name="X(14,67,1290)" index="267744" value="1"/>
  <variable name="X(15,7,365)" index="268474" value="1"/>
  <variable name="X(15,68,1030)" index="270794" value="1"/>
  <variable name="X(16,53,400)" index="271819" value="1"/>
  <variable name="X(16,69,1340)" index="274414" value="1"/>
  <variable name="X(17,36,409)" index="275138" value="1"/>
  <variable name="X(17,70,676)" index="277060" value="1"/>
  <variable name="X(18,50,449)" index="278488" value="1"/>
  <variable name="X(18,71,1294)" index="280988" value="1"/>
  <variable name="X(19,41,462)" index="281811" value="1"/>
  <variable name="X(19,72,1247)" index="284251" value="1"/>
  <variable name="X(20,6,478)" index="285137" value="1"/>
  <variable name="X(20,73,194)" index="286508" value="1"/>
  <variable name="X(21,6,503)" index="288472" value="1"/>
  <variable name="X(21,74,904)" index="290528" value="1"/>
  <variable name="X(22,4,516)" index="291795" value="1"/>
  <variable name="X(22,75,1344)" index="294278" value="1"/>
  <variable name="X(23,4,533)" index="295122" value="1"/>
  <variable name="X(23,76,516)" index="296760" value="1"/>
  <variable name="X(24,52,563)" index="298462" value="1"/>
  <variable name="X(24,77,752)" index="300306" value="1"/>
  <variable name="X(25,41,583)" index="301792" value="1"/>
  <variable name="X(25,78,52)" index="302916" value="1"/>
  <variable name="X(26,3,1290)" index="305809" value="1"/>
  <variable name="X(26,44,25)" index="306199" value="1"/>
  <variable name="X(26,48,1352)" index="309181" value="1"/>
  <variable name="X(27,7,654)" index="310138" value="1"/>
  <variable name="X(27,80,261)" index="311400" value="1"/>
  <variable name="X(28,10,676)" index="313470" value="1"/>
  <variable name="X(28,81,1042)" index="315491" value="1"/>
  <variable name="X(29,10,723)" index="316827" value="1"/>
  <variable name="X(29,82,1086)" index="318845" value="1"/>
  <variable name="X(30,50,752)" index="320166" value="1"/>
  <variable name="X(30,83,1348)" index="322417" value="1"/>
  <variable name="X(31,48,803)" index="323527" value="1"/>
  <variable name="X(31,84,877)" index="325256" value="1"/>
  <variable name="X(32,4,810)" index="326844" value="1"/>
  <variable name="X(32,85,348)" index="328037" value="1"/>
  <variable name="X(33,36,855)" index="330199" value="1"/>
  <variable name="X(34,4,877)" index="331876" value="1"/>
  <variable name="X(34,87,318)" index="332972" value="1"/>
  <variable name="X(35,48,904)" index="335213" value="1"/>
  <variable name="X(35,88,1352)" index="337316" value="1"/>
  <variable name="X(36,10,409)" index="338028" value="1"/>
  <variable name="X(36,17,676)" index="339950" value="1"/>
  <variable name="X(36,37,1217)" index="342146" value="1"/>
  <variable name="X(36,42,654)" index="343238" value="1"/>
  <variable name="X(36,43,855)" index="345094" value="1"/>
  <variable name="X(36,49,1011)" index="346905" value="1"/>
  <variable name="X(36,50,1247)" index="348796" value="1"/>
  <variable name="X(36,89,462)" index="349666" value="1"/>
  <variable name="X(37,36,1011)" index="351870" value="1"/>
  <variable name="X(37,38,1263)" index="353777" value="1"/>
  <variable name="X(37,43,1055)" index="355224" value="1"/>
  <variable name="X(37,90,1092)" index="356916" value="1"/>
  <variable name="X(38,10,1042)" index="358521" value="1"/>
  <variable name="X(38,37,1092)" index="360226" value="1"/>
  <variable name="X(38,39,1002)" index="361791" value="1"/>
  <variable name="X(38,91,1263)" index="363707" value="1"/>
  <variable name="X(39,10,1086)" index="365185" value="1"/>
  <variable name="X(39,38,1092)" index="366846" value="1"/>
  <variable name="X(39,92,723)" index="368132" value="1"/>
  <variable name="X(40,41,1221)" index="370285" value="1"/>
  <variable name="X(40,42,1184)" index="371903" value="1"/>
  <variable name="X(40,93,583)" index="372957" value="1"/>
  <variable name="X(41,19,1247)" index="375276" value="1"/>
  <variable name="X(41,25,52)" index="375736" value="1"/>
  <variable name="X(41,40,583)" index="377922" value="1"/>
  <variable name="X(41,50,462)" index="379456" value="1"/>
  <variable name="X(41,94,1221)" index="381870" value="1"/>
  <variable name="X(42,36,1217)" index="383521" value="1"/>
  <variable name="X(42,40,1221)" index="385180" value="1"/>
  <variable name="X(42,43,1184)" index="386798" value="1"/>
  <variable name="X(42,95,1267)" index="388536" value="1"/>
  <variable name="X(43,36,1247)" index="390171" value="1"/>
  <variable name="X(43,37,1263)" index="391842" value="1"/>
  <variable name="X(43,42,1267)" index="393501" value="1"/>
  <variable name="X(43,96,1184)" index="395073" value="1"/>
  <variable name="X(44,26,1290)" index="396834" value="1"/>
  <variable name="X(44,45,468)" index="397667" value="1"/>
  <variable name="X(44,51,400)" index="399254" value="1"/>
  <variable name="X(44,53,1340)" index="401849" value="1"/>
  <variable name="X(44,97,25)" index="402189" value="1"/>
  <variable name="X(45,3,1352)" index="405171" value="1"/>
  <variable name="X(45,44,1340)" index="406814" value="1"/>
  <variable name="X(45,98,468)" index="407597" value="1"/>
  <variable name="X(46,6,904)" index="409688" value="1"/>
  <variable name="X(46,48,318)" index="410757" value="1"/>
  <variable name="X(46,99,328)" index="412422" value="1"/>
  <variable name="X(47,48,1419)" index="415168" value="1"/>
  <variable name="X(47,100,803)" index="416207" value="1"/>
  <variable name="X(48,2,1017)" index="418076" value="1"/>
  <variable name="X(48,4,318)" index="419032" value="1"/>
  <variable name="X(48,7,1419)" index="421788" value="1"/>
  <variable name="X(48,26,25)" index="422049" value="1"/>
  <variable name="X(48,31,877)" index="424556" value="1"/>
  <variable name="X(48,35,1352)" index="426686" value="1"/>
  <variable name="X(48,46,904)" index="427893" value="1"/>
  <variable name="X(48,47,803)" index="429447" value="1"/>
  <variable name="X(48,49,654)" index="430953" value="1"/>
  <variable name="X(48,101,1011)" index="432965" value="1"/>
  <variable name="X(49,36,654)" index="434263" value="1"/>
  <variable name="X(49,48,1011)" index="436275" value="1"/>
  <variable name="X(49,102,1012)" index="437931" value="1"/>
  <variable name="X(50,18,1294)" index="439868" value="1"/>
  <variable name="X(50,30,1348)" index="441577" value="1"/>
  <variable name="X(50,36,462)" index="442346" value="1"/>
  <variable name="X(50,41,1247)" index="444786" value="1"/>
  <variable name="X(50,51,468)" index="445662" value="1"/>
  <variable name="X(50,52,752)" index="447601" value="1"/>
  <variable name="X(50,103,449)" index="448953" value="1"/>
  <variable name="X(51,44,468)" index="450627" value="1"/>
  <variable name="X(51,50,1294)" index="453108" value="1"/>
  <variable name="X(51,104,400)" index="453869" value="1"/>
  <variable name="X(52,3,369)" index="455493" value="1"/>
  <variable name="X(52,24,752)" index="457531" value="1"/>
  <variable name="X(52,50,1348)" index="459782" value="1"/>
  <variable name="X(52,53,563)" index="460652" value="1"/>
  <variable name="X(52,105,28)" index="461772" value="1"/>
  <variable name="X(53,16,1340)" index="464739" value="1"/>
  <variable name="X(53,44,400)" index="465454" value="1"/>
  <variable name="X(53,52,369)" index="467078" value="1"/>
  <variable name="X(53,106,563)" index="468927" value="1"/>
  <variable name="C(25,2)" index="470134" value="1"/>
  <variable name="C(25,48)" index="470135" value="2"/>
  <variable name="C(25,26)" index="470136" value="3"/>
  <variable name="C(25,44)" index="470137" value="4"/>
  <variable name="C(28,4)" index="470150" value="1"/>
  <variable name="C(28,3)" index="470151" value="2"/>
  <variable name="C(28,52)" index="470152" value="3"/>
  <variable name="C(52,25)" index="470260" value="1"/>
  <variable name="C(194,20)" index="470867" value="1.0000000010000001"/>
  <variable name="C(261,7)" index="471189" value="1"/>
  <variable name="C(261,27)" index="471190" value="2"/>
  <variable name="C(288,7)" index="471311" value="1"/>
  <variable name="C(288,8)" index="471312" value="2"/>
  <variable name="C(288,5)" index="471313" value="3"/>
  <variable name="C(288,6)" index="471314" value="4"/>
  <variable name="C(296,10)" index="471351" value="1"/>
  <variable name="C(318,48)" index="471465" value="1"/>
  <variable name="C(318,4)" index="471466" value="2"/>
  <variable name="C(318,34)" index="471467" value="3"/>
  <variable name="C(328,6)" index="471523" value="1"/>
  <variable name="C(328,46)" index="471524" value="2"/>
  <variable name="C(348,4)" index="471622" value="1"/>
  <variable name="C(348,32)" index="471623" value="2"/>
  <variable name="C(369,52)" index="471735" value="1"/>
  <variable name="C(369,3)" index="471736" value="2"/>
  <variable name="C(400,53)" index="471917" value="1"/>
  <variable name="C(400,44)" index="471918" value="2"/>
  <variable name="C(400,51)" index="471919" value="3"/>
  <variable name="C(409,36)" index="471957" value="1"/>
  <variable name="C(409,10)" index="471958" value="2"/>
  <variable name="C(409,9)" index="471959" value="3"/>
  <variable name="C(449,50)" index="472144" value="1"/>
  <variable name="C(462,41)" index="472212" value="1"/>
  <variable name="C(462,50)" index="472213" value="2"/>
  <variable name="C(462,36)" index="472214" value="3"/>
  <variable name="C(468,51)" index="472239" value="1"/>
  <variable name="C(468,44)" index="472240" value="2"/>
  <variable name="C(468,45)" index="472241" value="3"/>
  <variable name="C(478,6)" index="472282" value="1"/>
  <variable name="C(478,5)" index="472283" value="2"/>
  <variable name="C(478,8)" index="472284" value="3"/>
  <variable name="C(481,11)" index="472297" value="1"/>
  <variable name="C(503,6)" index="472423" value="1"/>
  <variable name="C(503,9)" index="472424" value="2"/>
  <variable name="C(503,10)" index="472425" value="3"/>
  <variable name="C(516,4)" index="472485" value="1"/>
  <variable name="C(516,23)" index="472486" value="2"/>
  <variable name="C(533,4)" index="472571" value="1"/>
  <variable name="C(533,1)" index="472572" value="2"/>
  <variable name="C(533,2)" index="472573" value="3"/>
  <variable name="C(563,52)" index="472715" value="1"/>
  <variable name="C(563,53)" index="472716" value="2"/>
  <variable name="C(583,41)" index="472835" value="1"/>
  <variable name="C(583,40)" index="472836" value="2"/>
  <variable name="C(654,7)" index="473145" value="1"/>
  <variable name="C(654,48)" index="473146" value="2"/>
  <variable name="C(654,49)" index="473147" value="3"/>
  <variable name="C(654,36)" index="473148" value="4"/>
  <variable name="C(676,10)" index="473271" value="1"/>
  <variable name="C(676,36)" index="473272" value="2"/>
  <variable name="C(676,17)" index="473273" value="3"/>
  <variable name="C(723,10)" index="473514" value="1"/>
  <variable name="C(723,39)" index="473515" value="2"/>
  <variable name="C(752,50)" index="473670" value="1"/>
  <variable name="C(752,52)" index="473671" value="2"/>
  <variable name="C(752,24)" index="473672" value="3"/>
  <variable name="C(803,48)" index="473899" value="1"/>
  <variable name="C(803,47)" index="473900" value="2"/>
  <variable name="C(810,4)" index="473929" value="1"/>
  <variable name="C(855,36)" index="474149" value="1"/>
  <variable name="C(877,4)" index="474249" value="1"/>
  <variable name="C(877,48)" index="474250" value="2"/>
  <variable name="C(877,31)" index="474251" value="3"/>
  <variable name="C(904,48)" index="474378" value="1"/>
  <variable name="C(904,46)" index="474379" value="2"/>
  <variable name="C(904,6)" index="474380" value="3"/>
  <variable name="C(904,21)" index="474381" value="4"/>
  <variable name="C(1011,36)" index="474848" value="1"/>
  <variable name="C(1011,49)" index="474849" value="2"/>
  <variable name="C(1011,48)" index="474850" value="3"/>
  <variable name="C(1017,2)" index="474875" value="1"/>
  <variable name="C(1017,1)" index="474876" value="2.0000000020000002"/>
  <variable name="C(1030,15)" index="474946" value="1"/>
  <variable name="C(1042,10)" index="475013" value="1"/>
  <variable name="C(1042,28)" index="475014" value="2"/>
  <variable name="C(1086,10)" index="475238" value="1"/>
  <variable name="C(1086,29)" index="475239" value="2"/>
  <variable name="C(1092,38)" index="475270" value="1"/>
  <variable name="C(1092,37)" index="475271" value="2"/>
  <variable name="C(1184,42)" index="475747" value="1"/>
  <variable name="C(1184,43)" index="475748" value="2"/>
  <variable name="C(1217,36)" index="475904" value="1"/>
  <variable name="C(1221,40)" index="475917" value="1"/>
  <variable name="C(1221,41)" index="475918" value="1.9999999999999998"/>
  <variable name="C(1247,36)" index="476044" value="1"/>
  <variable name="C(1247,50)" index="476045" value="2"/>
  <variable name="C(1247,41)" index="476046" value="3"/>
  <variable name="C(1247,19)" index="476047" value="4"/>
  <variable name="C(1263,37)" index="476122" value="1"/>
  <variable name="C(1263,38)" index="476123" value="2"/>
  <variable name="C(1267,42)" index="476136" value="1"/>
  <variable name="C(1290,26)" index="476240" value="1"/>
  <variable name="C(1290,3)" index="476241" value="2"/>
  <variable name="C(1290,4)" index="476242" value="3"/>
  <variable name="C(1290,14)" index="476243" value="4"/>
  <variable name="C(1294,50)" index="476259" value="1"/>
  <variable name="C(1294,18)" index="476260" value="2.0000000020000002"/>
  <variable name="C(1340,44)" index="476472" value="1"/>
  <variable name="C(1340,53)" index="476473" value="2"/>
  <variable name="C(1340,16)" index="476474" value="3"/>
  <variable name="C(1344,22)" index="476496" value="0.99999999999999978"/>
  <variable name="C(1348,50)" index="476515" value="1"/>
  <variable name="C(1348,30)" index="476516" value="2"/>
  <variable name="C(1352,3)" index="476531" value="1"/>
  <variable name="C(1352,26)" index="476532" value="2"/>
  <variable name="C(1352,48)" index="476533" value="3"/>
  <variable name="C(1352,35)" index="476534" value="4"/>
  <variable name="C(1419,48)" index="476824" value="1"/>
  <variable name="C(1419,7)" index="476825" value="2"/>
  <variable name="C(1463,12)" index="477017" value="1"/>
  <variable name="C(1548,6)" index="477354" value="1"/>
  <variable name="C(1548,13)" index="477355" value="2"/>
 </variables>
</CPLEXSolution>
